CST06
Position Depot: Center
Horizon for Depot: Small
Position of customers: Cluster
Distribution of the demand: Large
Width of time windows: Tight
Distribution of the service: Small

VEHICLE 
NUMBER 	 CAPACITY 
 14 	 	 359 
 
CUSTOMER
CUST NO. 	 XCOORD.  	 YCOORD. 	 DEMAND 	 READY TIME 	 DUE DATE 	 SERVICE TIME 
 0 	 	 500 	 	 500 	 	 0 	 	 0 	 	 2178 	 	 0 
  1 	 	 213 	 	 36 	 	 76 	 	 534 	 	 617 	 	 91 
  2 	 	 664 	 	 825 	 	 93 	 	 807 	 	 921 	 	 69 
  3 	 	 596 	 	 290 	 	 83 	 	 271 	 	 347 	 	 54 
  4 	 	 657 	 	 859 	 	 7 	 	 336 	 	 431 	 	 59 
  5 	 	 726 	 	 843 	 	 23 	 	 972 	 	 1125 	 	 80 
  6 	 	 605 	 	 271 	 	 9 	 	 897 	 	 1092 	 	 58 
  7 	 	 617 	 	 455 	 	 61 	 	 1527 	 	 1594 	 	 87 
  8 	 	 632 	 	 271 	 	 50 	 	 2007 	 	 2178 	 	 53 
  9 	 	 679 	 	 361 	 	 78 	 	 1485 	 	 1650 	 	 91 
  10 	 	 650 	 	 286 	 	 80 	 	 877 	 	 927 	 	 70 
  11 	 	 198 	 	 10 	 	 53 	 	 2055 	 	 2178 	 	 96 
  12 	 	 645 	 	 749 	 	 8 	 	 913 	 	 997 	 	 59 
  13 	 	 593 	 	 301 	 	 34 	 	 63 	 	 241 	 	 63 
  14 	 	 743 	 	 721 	 	 89 	 	 402 	 	 486 	 	 86 
  15 	 	 696 	 	 147 	 	 90 	 	 783 	 	 911 	 	 78 
  16 	 	 575 	 	 367 	 	 54 	 	 377 	 	 573 	 	 98 
  17 	 	 261 	 	 43 	 	 98 	 	 467 	 	 567 	 	 95 
  18 	 	 671 	 	 225 	 	 44 	 	 1348 	 	 1405 	 	 92 
  19 	 	 543 	 	 295 	 	 52 	 	 859 	 	 1048 	 	 79 
  20 	 	 204 	 	 61 	 	 33 	 	 1211 	 	 1374 	 	 69 
  21 	 	 629 	 	 781 	 	 68 	 	 1044 	 	 1175 	 	 81 
  22 	 	 730 	 	 817 	 	 93 	 	 760 	 	 865 	 	 96 
  23 	 	 209 	 	 33 	 	 49 	 	 532 	 	 605 	 	 91 
  24 	 	 609 	 	 276 	 	 48 	 	 291 	 	 438 	 	 87 
  25 	 	 282 	 	 38 	 	 82 	 	 372 	 	 561 	 	 84 
  26 	 	 259 	 	 60 	 	 68 	 	 802 	 	 944 	 	 92 
  27 	 	 581 	 	 278 	 	 12 	 	 813 	 	 958 	 	 70 
  28 	 	 152 	 	 9 	 	 20 	 	 541 	 	 661 	 	 70 
  29 	 	 856 	 	 681 	 	 27 	 	 938 	 	 1112 	 	 83 
  30 	 	 663 	 	 337 	 	 63 	 	 1425 	 	 1475 	 	 94 
  31 	 	 626 	 	 321 	 	 38 	 	 1447 	 	 1627 	 	 53 
  32 	 	 664 	 	 824 	 	 27 	 	 619 	 	 775 	 	 55 
  33 	 	 561 	 	 372 	 	 1 	 	 2041 	 	 2178 	 	 97 
  34 	 	 628 	 	 813 	 	 65 	 	 1535 	 	 1646 	 	 64 
  35 	 	 0 	 	 192 	 	 2 	 	 1028 	 	 1120 	 	 51 
  36 	 	 707 	 	 817 	 	 70 	 	 834 	 	 910 	 	 92 
  37 	 	 664 	 	 829 	 	 80 	 	 557 	 	 660 	 	 78 
  38 	 	 84 	 	 43 	 	 18 	 	 614 	 	 679 	 	 74 
  39 	 	 683 	 	 859 	 	 72 	 	 2035 	 	 2178 	 	 93 
  40 	 	 220 	 	 51 	 	 75 	 	 493 	 	 635 	 	 86 
  41 	 	 465 	 	 748 	 	 99 	 	 890 	 	 993 	 	 92 
  42 	 	 218 	 	 14 	 	 97 	 	 495 	 	 618 	 	 51 
  43 	 	 160 	 	 12 	 	 48 	 	 1821 	 	 1970 	 	 65 
  44 	 	 200 	 	 17 	 	 32 	 	 512 	 	 698 	 	 58 
  45 	 	 169 	 	 11 	 	 90 	 	 598 	 	 649 	 	 96 
  46 	 	 174 	 	 106 	 	 17 	 	 1216 	 	 1285 	 	 77 
  47 	 	 718 	 	 154 	 	 73 	 	 1793 	 	 1907 	 	 94 
  48 	 	 583 	 	 777 	 	 19 	 	 1799 	 	 1991 	 	 79 
  49 	 	 609 	 	 302 	 	 31 	 	 188 	 	 248 	 	 71 
  50 	 	 581 	 	 324 	 	 61 	 	 1883 	 	 2053 	 	 60 
  51 	 	 623 	 	 832 	 	 65 	 	 1123 	 	 1235 	 	 80 
  52 	 	 591 	 	 313 	 	 90 	 	 130 	 	 282 	 	 83 
  53 	 	 512 	 	 288 	 	 95 	 	 320 	 	 419 	 	 66 
  54 	 	 297 	 	 27 	 	 1 	 	 1920 	 	 1999 	 	 56 
  55 	 	 590 	 	 957 	 	 83 	 	 1669 	 	 1720 	 	 95 
  56 	 	 625 	 	 958 	 	 50 	 	 931 	 	 1045 	 	 80 
  57 	 	 570 	 	 271 	 	 91 	 	 740 	 	 920 	 	 58 
  58 	 	 448 	 	 309 	 	 5 	 	 979 	 	 1037 	 	 60 
  59 	 	 535 	 	 311 	 	 45 	 	 954 	 	 1085 	 	 53 
  60 	 	 673 	 	 402 	 	 3 	 	 233 	 	 328 	 	 79 
  61 	 	 564 	 	 272 	 	 67 	 	 1961 	 	 2061 	 	 90 
  62 	 	 252 	 	 16 	 	 12 	 	 404 	 	 598 	 	 83 
  63 	 	 90 	 	 137 	 	 20 	 	 659 	 	 807 	 	 87 
  64 	 	 611 	 	 899 	 	 50 	 	 1517 	 	 1657 	 	 62 
  65 	 	 565 	 	 268 	 	 58 	 	 1267 	 	 1344 	 	 95 
  66 	 	 145 	 	 129 	 	 50 	 	 544 	 	 672 	 	 73 
  67 	 	 547 	 	 61 	 	 22 	 	 718 	 	 866 	 	 75 
  68 	 	 199 	 	 6 	 	 7 	 	 1369 	 	 1436 	 	 51 
  69 	 	 658 	 	 836 	 	 23 	 	 466 	 	 526 	 	 57 
  70 	 	 477 	 	 128 	 	 80 	 	 531 	 	 694 	 	 84 
  71 	 	 611 	 	 817 	 	 36 	 	 306 	 	 369 	 	 61 
  72 	 	 827 	 	 817 	 	 32 	 	 447 	 	 500 	 	 51 
  73 	 	 230 	 	 72 	 	 35 	 	 1725 	 	 1902 	 	 51 
  74 	 	 501 	 	 354 	 	 68 	 	 435 	 	 537 	 	 67 
  75 	 	 446 	 	 252 	 	 4 	 	 2045 	 	 2178 	 	 86 
  76 	 	 636 	 	 284 	 	 98 	 	 1997 	 	 2094 	 	 50 
  77 	 	 680 	 	 901 	 	 1 	 	 1530 	 	 1666 	 	 73 
  78 	 	 542 	 	 868 	 	 74 	 	 636 	 	 752 	 	 99 
  79 	 	 630 	 	 799 	 	 34 	 	 1576 	 	 1739 	 	 53 
  80 	 	 178 	 	 114 	 	 98 	 	 851 	 	 1023 	 	 53 
  81 	 	 565 	 	 410 	 	 46 	 	 -16 	 	 129 	 	 63 
  82 	 	 140 	 	 82 	 	 68 	 	 550 	 	 606 	 	 70 
  83 	 	 692 	 	 857 	 	 96 	 	 1960 	 	 2070 	 	 92 
  84 	 	 262 	 	 21 	 	 74 	 	 440 	 	 588 	 	 91 
  85 	 	 667 	 	 791 	 	 38 	 	 1967 	 	 2162 	 	 84 
  86 	 	 645 	 	 182 	 	 98 	 	 1289 	 	 1482 	 	 85 
  87 	 	 299 	 	 21 	 	 17 	 	 2025 	 	 2126 	 	 76 
  88 	 	 262 	 	 5 	 	 13 	 	 2031 	 	 2108 	 	 70 
  89 	 	 89 	 	 239 	 	 87 	 	 1100 	 	 1228 	 	 56 
  90 	 	 580 	 	 996 	 	 21 	 	 1608 	 	 1730 	 	 59 
  91 	 	 549 	 	 295 	 	 37 	 	 178 	 	 231 	 	 90 
  92 	 	 299 	 	 196 	 	 79 	 	 1523 	 	 1675 	 	 62 
  93 	 	 642 	 	 915 	 	 61 	 	 413 	 	 482 	 	 61 
  94 	 	 558 	 	 270 	 	 25 	 	 1992 	 	 2178 	 	 97 
  95 	 	 715 	 	 250 	 	 53 	 	 1116 	 	 1255 	 	 93 
  96 	 	 551 	 	 315 	 	 6 	 	 1932 	 	 2053 	 	 58 
  97 	 	 156 	 	 68 	 	 33 	 	 923 	 	 1108 	 	 79 
  98 	 	 547 	 	 367 	 	 49 	 	 1896 	 	 1995 	 	 56 
  99 	 	 741 	 	 818 	 	 81 	 	 1027 	 	 1163 	 	 57 
  100 	 	 624 	 	 316 	 	 87 	 	 1770 	 	 1923 	 	 59 
 